Route #1: 4
Route #2: 9 21 31 41 38
Route #3: 33 40 3 15 18 34 6
Route #4: 39 12 32 23 37 19 28 8 22 27
Route #5: 13 42 25 26 35 44 7 20
Route #6: 16 30 1 5 29
Route #7: 24 14 17 2 36 10 11 43
Cost 727.8366964829157